c t mc
c file mc2022_track1_028.cnf
p cnf 62 320
7 25 38 60 29 0
-37 -27 -47 34 42 0
-19 3 -26 -44 17 0
-34 42 15 57 61 0
-31 14 12 -45 55 0
-48 -11 54 10 62 0
-4 -30 -50 -7 25 0
-60 -29 -20 -33 39 0
37 -27 -47 -34 42 0
48 11 54 10 62 0
10 62 6 -43 -13 0
57 61 -53 -40 -49 0
45 -55 51 58 41 0
22 -18 2 -37 -27 0
19 -3 -26 -44 17 0
33 -39 -56 -1 59 0
-35 28 46 -31 -14 0
57 61 -53 40 49 0
22 18 -2 -37 -27 0
40 49 36 19 3 0
-44 17 -5 24 -9 0
-57 61 -53 -40 49 0
-45 55 -51 -58 41 0
-43 -13 -52 32 -21 0
-60 -29 20 33 39 0
35 -28 -46 -31 14 0
-32 -21 -8 -35 -28 0
-31 14 -12 -45 -55 0
4 30 50 -7 -25 0
43 13 52 -32 -21 0
44 17 -5 -24 -9 0
60 29 -20 33 -39 0
32 -21 8 35 28 0
35 -28 46 -31 -14 0
24 -9 -16 -48 -11 0
-19 -3 26 -44 17 0
40 49 -36 -19 3 0
44 17 5 24 -9 0
-32 21 -8 -35 28 0
-35 -28 -46 -31 -14 0
19 -3 26 -44 -17 0
1 -59 23 22 18 0
-22 18 -2 -37 27 0
45 -55 51 -58 -41 0
-19 3 26 -44 -17 0
-32 21 8 35 28 0
4 -30 -50 -7 -25 0
35 28 46 -31 14 0
-48 11 54 -10 62 0
-31 -14 12 -45 -55 0
-32 -21 8 -35 28 0
48 -11 -54 -10 -62 0
-37 -27 -47 -34 -42 0
-1 59 -23 22 -18 0
48 11 54 -10 -62 0
-43 -13 52 32 21 0
44 -17 -5 -24 9 0
-34 42 -15 57 -61 0
10 -62 -6 -43 -13 0
34 -42 15 57 61 0
37 -27 47 -34 -42 0
57 -61 53 -40 -49 0
-10 -62 6 43 13 0
-35 -28 -46 31 14 0
57 61 53 -40 49 0
43 13 52 32 21 0
48 -11 -54 10 62 0
-48 -11 54 -10 -62 0
-37 27 -47 34 -42 0
-31 -14 -12 45 -55 0
60 -29 -20 -33 -39 0
-7 25 -38 60 29 0
-4 -30 50 7 25 0
-57 -61 53 40 -49 0
24 9 16 48 11 0
32 -21 -8 35 -28 0
-60 29 -20 33 39 0
-45 -55 51 58 -41 0
24 -9 16 48 -11 0
22 -18 -2 37 -27 0
1 -59 23 -22 -18 0
-24 -9 -16 -48 11 0
48 11 -54 -10 62 0
-32 -21 8 35 -28 0
-10 -62 -6 43 -13 0
-44 17 5 24 9 0
-60 -29 20 -33 -39 0
-19 3 26 44 17 0
48 11 -54 10 -62 0
7 25 38 -60 -29 0
-24 9 16 -48 11 0
-1 59 -23 -22 18 0
-34 -42 15 -57 61 0
33 -39 -56 1 -59 0
19 3 26 -44 17 0
1 59 23 -22 18 0
35 28 46 31 -14 0
-33 39 56 1 59 0
-48 11 -54 -10 -62 0
-7 -25 -38 -60 29 0
33 39 56 -1 59 0
60 -29 -20 33 39 0
33 -39 56 -1 -59 0
31 -14 12 45 -55 0
-10 -62 -6 -43 13 0
10 62 -6 -43 13 0
37 -27 47 34 42 0
-24 -9 16 -48 -11 0
32 -21 8 -35 -28 0
-35 -28 46 -31 14 0
31 14 -12 -45 55 0
-34 -42 15 57 -61 0
-19 -3 -26 -44 -17 0
19 -3 -26 44 -17 0
37 27 -47 34 42 0
-31 14 -12 45 55 0
-44 -17 -5 24 9 0
40 49 -36 19 -3 0
-24 9 16 48 -11 0
-45 -55 -51 58 41 0
10 62 -6 43 -13 0
31 14 12 -45 -55 0
4 30 -50 -7 25 0
-44 -17 -5 -24 -9 0
57 -61 53 40 49 0
-22 18 2 -37 -27 0
-33 39 56 -1 -59 0
57 -61 -53 40 -49 0
24 9 -16 48 -11 0
-24 -9 -16 48 -11 0
-22 18 -2 37 -27 0
44 -17 5 -24 -9 0
-44 -17 5 24 -9 0
35 28 -46 -31 -14 0
34 42 -15 -57 -61 0
-31 14 12 45 -55 0
45 -55 -51 -58 41 0
-57 -61 -53 40 49 0
45 55 -51 -58 -41 0
1 59 23 22 -18 0
44 -17 -5 24 -9 0
-57 -61 -53 -40 -49 0
-43 13 -52 32 21 0
-4 30 -50 7 25 0
24 -9 -16 48 11 0
-35 -28 46 31 -14 0
-43 13 -52 -32 -21 0
7 -25 38 -60 29 0
34 -42 -15 57 -61 0
22 18 2 37 -27 0
-40 49 36 -19 3 0
22 -18 -2 -37 27 0
7 25 -38 -60 29 0
31 14 -12 45 -55 0
60 29 -20 -33 39 0
37 27 47 34 -42 0
40 -49 36 -19 3 0
-40 -49 -36 -19 3 0
45 55 51 -58 41 0
-4 30 50 7 -25 0
-22 -18 2 -37 27 0
-22 -18 2 37 -27 0
-43 13 52 32 -21 0
60 -29 20 33 -39 0
4 -30 -50 7 25 0
43 13 -52 -32 21 0
31 -14 12 -45 55 0
7 -25 -38 60 29 0
60 -29 20 -33 39 0
32 21 -8 -35 -28 0
-4 -30 -50 7 -25 0
33 -39 56 1 59 0
-10 -62 6 -43 -13 0
43 -13 -52 32 21 0
33 39 56 1 -59 0
-33 -39 56 1 -59 0
-40 49 36 19 -3 0
-35 28 -46 31 -14 0
1 -59 -23 22 -18 0
-33 -39 56 -1 59 0
48 -11 54 10 -62 0
-22 -18 -2 -37 -27 0
-4 -30 50 -7 -25 0
32 21 8 35 -28 0
-60 29 20 33 -39 0
19 -3 26 44 17 0
-10 62 6 -43 13 0
-34 -42 -15 57 61 0
-31 -14 -12 -45 55 0
-1 59 23 -22 -18 0
43 -13 -52 -32 -21 0
4 30 -50 7 -25 0
-45 55 51 -58 -41 0
4 30 50 7 25 0
1 -59 -23 -22 18 0
-4 30 -50 -7 -25 0
1 59 -23 22 18 0
40 -49 -36 -19 -3 0
43 -13 52 -32 21 0
45 55 -51 58 41 0
4 -30 50 7 -25 0
-48 -11 -54 -10 62 0
22 18 2 -37 27 0
31 -14 -12 45 55 0
-57 -61 53 -40 49 0
44 17 -5 24 9 0
-60 29 20 -33 39 0
40 -49 -36 19 3 0
-37 27 -47 -34 42 0
-24 9 -16 48 11 0
33 39 -56 -1 -59 0
4 -30 50 -7 25 0
34 42 15 57 -61 0
-1 -59 23 22 -18 0
-7 -25 -38 60 -29 0
-57 61 53 -40 -49 0
-33 -39 -56 1 59 0
40 49 36 -19 -3 0
-7 -25 38 60 29 0
10 -62 6 43 -13 0
-1 59 23 22 18 0
-7 -25 38 -60 -29 0
-33 39 -56 -1 59 0
10 -62 6 -43 13 0
-31 -14 12 45 55 0
45 -55 -51 58 -41 0
35 -28 -46 31 -14 0
-33 -39 -56 -1 -59 0
10 62 6 43 13 0
34 42 15 -57 61 0
60 29 20 -33 -39 0
44 17 5 -24 9 0
7 -25 -38 -60 -29 0
40 -49 36 19 -3 0
-32 -21 -8 35 28 0
37 27 -47 -34 -42 0
-10 62 6 43 -13 0
-40 49 -36 19 3 0
19 3 26 44 -17 0
-24 -9 16 48 11 0
-24 9 -16 -48 -11 0
32 21 8 -35 28 0
-44 17 5 -24 -9 0
-33 39 -56 1 -59 0
24 -9 16 -48 11 0
32 -21 -8 -35 28 0
-40 -49 36 -19 -3 0
-22 18 2 37 27 0
33 39 -56 1 59 0
10 -62 -6 43 13 0
34 -42 15 -57 -61 0
-1 -59 23 -22 18 0
37 27 47 -34 42 0
1 59 -23 -22 -18 0
-10 62 -6 -43 -13 0
35 -28 46 31 14 0
43 -13 52 32 -21 0
-43 13 52 -32 21 0
35 28 -46 31 14 0
24 9 16 -48 -11 0
45 55 51 58 -41 0
-37 27 47 34 42 0
-19 3 -26 44 -17 0
-43 -13 52 -32 -21 0
-7 25 -38 -60 -29 0
-60 29 -20 -33 -39 0
7 -25 38 60 -29 0
-48 -11 -54 10 -62 0
19 3 -26 -44 -17 0
-57 61 53 40 49 0
22 18 -2 37 27 0
31 14 12 45 55 0
-1 -59 -23 -22 -18 0
60 29 20 33 39 0
-10 62 -6 43 13 0
-45 55 -51 58 -41 0
-37 -27 47 34 -42 0
37 -27 -47 34 -42 0
48 -11 54 -10 62 0
-40 -49 36 19 3 0
-60 -29 -20 33 -39 0
-44 17 -5 -24 9 0
-32 21 8 -35 -28 0
19 3 -26 44 17 0
-40 -49 -36 19 -3 0
-7 25 38 -60 29 0
22 -18 2 37 27 0
-19 -3 -26 44 17 0
-34 42 -15 -57 61 0
44 -17 5 24 9 0
24 9 -16 -48 11 0
-35 28 46 31 14 0
34 42 -15 57 61 0
-7 25 38 60 -29 0
-32 21 -8 35 -28 0
-44 -17 5 -24 9 0
57 61 53 40 -49 0
-34 -42 -15 -57 -61 0
7 25 -38 60 -29 0
31 -14 -12 -45 -55 0
-45 -55 51 -58 41 0
-48 11 -54 10 62 0
-19 -3 26 44 -17 0
-4 30 50 -7 25 0
-40 49 -36 -19 -3 0
-35 28 -46 -31 14 0
-45 -55 -51 -58 -41 0
-37 27 47 -34 -42 0
-1 -59 -23 22 18 0
-57 61 -53 40 -49 0
-37 -27 47 -34 42 0
-43 -13 -52 -32 21 0
-34 42 15 -57 -61 0
-45 55 51 58 41 0
57 -61 -53 -40 49 0
-22 -18 -2 37 27 0
-48 11 54 10 -62 0
43 13 -52 32 -21 0
34 -42 -15 -57 61 0
32 21 -8 35 28 0
